NAME : XML100_2224_05
DIMENSION : 101
NB_CLUSTERS : 3
CLUSTERING_ALG : DBSCAN
CLUSTERING_PARAMS : eps(144), minSamples(3)
CLUSTERS
1 0
2 1 2 4 5 7 8 9 10 11 12 13 14 15 16 17 19 20 21 22 23 24 25 26 28 30 32 33 34 35 36 37 38 41 42 44 48 49 50 51 52 53 57 59 60 61 62 65 66 67 68 70 73 74 77 78 79 80 81 82 83 84 85 89 90 92 94 96 97 98 100
3 3 6 18 27 29 31 39 40 43 45 46 47 54 55 56 58 63 64 69 71 72 75 76 86 87 88 91 93 95 99
EOF